c CNF file corresponding to a (partial) station packing problem.
p cnf 1748 229
1 2 3 4 5 6 7 8 9 10 11 12 13 14 0
-1 -2 0
-1 -3 0
-1 -4 0
-1 -5 0
-1 -6 0
-1 -7 0
-1 -8 0
-1 -9 0
-1 -10 0
-1 -11 0
-1 -12 0
-1 -13 0
-1 -14 0
-2 -3 0
-2 -4 0
-2 -5 0
-2 -6 0
-2 -7 0
-2 -8 0
-2 -9 0
-2 -10 0
-2 -11 0
-2 -12 0
-2 -13 0
-2 -14 0
-3 -4 0
-3 -5 0
-3 -6 0
-3 -7 0
-3 -8 0
-3 -9 0
-3 -10 0
-3 -11 0
-3 -12 0
-3 -13 0
-3 -14 0
-4 -5 0
-4 -6 0
-4 -7 0
-4 -8 0
-4 -9 0
-4 -10 0
-4 -11 0
-4 -12 0
-4 -13 0
-4 -14 0
-5 -6 0
-5 -7 0
-5 -8 0
-5 -9 0
-5 -10 0
-5 -11 0
-5 -12 0
-5 -13 0
-5 -14 0
-6 -7 0
-6 -8 0
-6 -9 0
-6 -10 0
-6 -11 0
-6 -12 0
-6 -13 0
-6 -14 0
-7 -8 0
-7 -9 0
-7 -10 0
-7 -11 0
-7 -12 0
-7 -13 0
-7 -14 0
-8 -9 0
-8 -10 0
-8 -11 0
-8 -12 0
-8 -13 0
-8 -14 0
-9 -10 0
-9 -11 0
-9 -12 0
-9 -13 0
-9 -14 0
-10 -11 0
-10 -12 0
-10 -13 0
-10 -14 0
-11 -12 0
-11 -13 0
-11 -14 0
-12 -13 0
-12 -14 0
-13 -14 0
1732 1733 1734 1735 1736 1737 1738 1739 1740 1741 1742 1743 1744 1745 1746 1747 1748 0
-1732 -1733 0
-1732 -1734 0
-1732 -1735 0
-1732 -1736 0
-1732 -1737 0
-1732 -1738 0
-1732 -1739 0
-1732 -1740 0
-1732 -1741 0
-1732 -1742 0
-1732 -1743 0
-1732 -1744 0
-1732 -1745 0
-1732 -1746 0
-1732 -1747 0
-1732 -1748 0
-1733 -1734 0
-1733 -1735 0
-1733 -1736 0
-1733 -1737 0
-1733 -1738 0
-1733 -1739 0
-1733 -1740 0
-1733 -1741 0
-1733 -1742 0
-1733 -1743 0
-1733 -1744 0
-1733 -1745 0
-1733 -1746 0
-1733 -1747 0
-1733 -1748 0
-1734 -1735 0
-1734 -1736 0
-1734 -1737 0
-1734 -1738 0
-1734 -1739 0
-1734 -1740 0
-1734 -1741 0
-1734 -1742 0
-1734 -1743 0
-1734 -1744 0
-1734 -1745 0
-1734 -1746 0
-1734 -1747 0
-1734 -1748 0
-1735 -1736 0
-1735 -1737 0
-1735 -1738 0
-1735 -1739 0
-1735 -1740 0
-1735 -1741 0
-1735 -1742 0
-1735 -1743 0
-1735 -1744 0
-1735 -1745 0
-1735 -1746 0
-1735 -1747 0
-1735 -1748 0
-1736 -1737 0
-1736 -1738 0
-1736 -1739 0
-1736 -1740 0
-1736 -1741 0
-1736 -1742 0
-1736 -1743 0
-1736 -1744 0
-1736 -1745 0
-1736 -1746 0
-1736 -1747 0
-1736 -1748 0
-1737 -1738 0
-1737 -1739 0
-1737 -1740 0
-1737 -1741 0
-1737 -1742 0
-1737 -1743 0
-1737 -1744 0
-1737 -1745 0
-1737 -1746 0
-1737 -1747 0
-1737 -1748 0
-1738 -1739 0
-1738 -1740 0
-1738 -1741 0
-1738 -1742 0
-1738 -1743 0
-1738 -1744 0
-1738 -1745 0
-1738 -1746 0
-1738 -1747 0
-1738 -1748 0
-1739 -1740 0
-1739 -1741 0
-1739 -1742 0
-1739 -1743 0
-1739 -1744 0
-1739 -1745 0
-1739 -1746 0
-1739 -1747 0
-1739 -1748 0
-1740 -1741 0
-1740 -1742 0
-1740 -1743 0
-1740 -1744 0
-1740 -1745 0
-1740 -1746 0
-1740 -1747 0
-1740 -1748 0
-1741 -1742 0
-1741 -1743 0
-1741 -1744 0
-1741 -1745 0
-1741 -1746 0
-1741 -1747 0
-1741 -1748 0
-1742 -1743 0
-1742 -1744 0
-1742 -1745 0
-1742 -1746 0
-1742 -1747 0
-1742 -1748 0
-1743 -1744 0
-1743 -1745 0
-1743 -1746 0
-1743 -1747 0
-1743 -1748 0
-1744 -1745 0
-1744 -1746 0
-1744 -1747 0
-1744 -1748 0
-1745 -1746 0
-1745 -1747 0
-1745 -1748 0
-1746 -1747 0
-1746 -1748 0
-1747 -1748 0
